# Solution for model GasLib-40
# Objective value = 1.3665022373278957e+01
loadshed[innode_1] 0
loadshed[innode_2] 0
loadshed[innode_3] 0
loadshed[innode_4] 0
loadshed[innode_5] 0
loadshed[innode_6] 0
loadshed[innode_7] 0
loadshed[innode_8] 0
loadshed[source_1] -2.2141472355169922e-01
loadshed[source_2] -5.0526164112735250e-02
loadshed[source_3] 3.5837898218450903e-01
loadshed[sink_1] 0
loadshed[sink_2] 0
loadshed[sink_3] 0
loadshed[sink_4] 0
loadshed[sink_5] 0
loadshed[sink_6] 0
loadshed[sink_7] 0
loadshed[sink_8] 0
loadshed[sink_9] 0
loadshed[sink_10] 0
loadshed[sink_11] 0
loadshed[sink_12] 8.3556824702852217e-01
loadshed[sink_13] 0
loadshed[sink_14] 0
loadshed[sink_15] 0
loadshed[sink_16] 0
loadshed[sink_17] 0
loadshed[sink_18] 0
loadshed[sink_19] 0
loadshed[sink_20] 0
loadshed[sink_21] 0
loadshed[sink_22] 0
loadshed[sink_23] 0
loadshed[sink_24] 0
loadshed[sink_25] 0
loadshed[sink_26] 0
loadshed[sink_27] 0
loadshed[sink_28] 0
loadshed[sink_29] 0
flow[source_1,sink_3] 1.9309379292815578e+02
flow[innode_1,sink_16] 1.6354166666666970e+01
flow[innode_6,sink_13] 1.3045121732168543e+01
flow[sink_13,sink_14] -3.3090449344981252e+00
flow[sink_14,sink_10] -1.9663211601164903e+01
flow[sink_25,sink_26] 2.3164747762672249e+02
flow[sink_26,sink_9] 1.3002744535047518e+02
flow[sink_9,sink_18] 1.1367327868380850e+02
flow[sink_26,sink_4] 85.265865609581
flow[sink_4,sink_20] 3.2708333333335005e+01
flow[sink_18,sink_6] 9.7319112017141833e+01
flow[sink_25,innode_8] -1.6038545959481942e+02
flow[sink_6,sink_7] 4.8256612017141379e+01
flow[sink_6,sink_22] 3.2708333333333641e+01
flow[sink_7,sink_24] 3.5397477626721049e+01
flow[sink_22,sink_1] 1.6354166666666970e+01
flow[sink_24,sink_21] 1.9043310960054377e+01
flow[sink_21,sink_12] 2.6891442933877103e+00
flow[sink_7,sink_5] -3.4950322762457091e+00
flow[sink_5,sink_17] -1.9849198942912381e+01
flow[sink_17,sink_4] -3.6203365609579052e+01
flow[sink_17,sink_8] 0
flow[sink_3,sink_23] 16.3541666666697
flow[sink_8,sink_20] -1.6354166666668334e+01
flow[sink_25,sink_20] 0
flow[sink_25,sink_15] -1.0066130643073778e+02
flow[sink_15,sink_29] -6.4955105138878508e+01
flow[sink_29,sink_28] 1.6354166666667879e+01
flow[sink_29,sink_2] 6.8414534625192616e+01
flow[sink_2,sink_15] 5.2060367958525951e+01
flow[sink_29,innode_7] -1.6607797309740567e+02
flow[innode_4,sink_19] 1.0143404493451148e+02
flow[sink_19,innode_3] 3.3537857170297613e+01
flow[innode_4,innode_5] 0
flow[sink_27,innode_5] 0
flow[sink_27,sink_19] -1.6354166666679703e+01
flow[sink_10,sink_11] 3.2708333333333641e+01
flow[sink_10,innode_2] -3.5187854430867496e+01
flow[sink_10,innode_3] -3.3537857170297613e+01
flow[innode_6,sink_25] -1.3045121732168543e+01
flow[sink_11,innode_1] 1.6354166666666970e+01
flow[sink_19,innode_2] 3.5187854430867496e+01
flow[source_3,innode_4] 1.0143404493451148e+02
flow[source_2,innode_7] 1.6607797309740567e+02
flow[sink_3,innode_8] 1.6038545959481942e+02
pressure[innode_1] 7.4892373639409939e+01
pressure[innode_2] 7.6903898384283380e+01
pressure[innode_3] 7.6829632597330090e+01
pressure[innode_4] 81.01325
pressure[innode_5] 7.6552768387139878e+01
pressure[innode_6] 7.4180026406586776e+01
pressure[innode_7] 81.01325
pressure[innode_8] 8.0367811214743739e+01
pressure[source_1] 81.01325
pressure[source_2] 81.01325
pressure[source_3] 81.01325
pressure[sink_1] 4.1269926714792675e+01
pressure[sink_2] 7.4838297456815013e+01
pressure[sink_3] 8.0367811214743739e+01
pressure[sink_4] 4.7024307764842405e+01
pressure[sink_5] 4.4162112661036169e+01
pressure[sink_6] 4.3371004325180046e+01
pressure[sink_7] 4.2708556068538350e+01
pressure[sink_8] 4.3485016922471075e+01
pressure[sink_9] 5.0082752400531731e+01
pressure[sink_10] 7.5044074947013485e+01
pressure[sink_11] 7.4892373639409939e+01
pressure[sink_12] 1.01325
pressure[sink_13] 7.4108110830519692e+01
pressure[sink_14] 7.4114032648298291e+01
pressure[sink_15] 7.4668331829350720e+01
pressure[sink_16] 7.3870723804592259e+01
pressure[sink_17] 4.5640734508152292e+01
pressure[sink_18] 4.5969714373113192e+01
pressure[sink_19] 7.6903898384283380e+01
pressure[sink_20] 4.4624672346059370e+01
pressure[sink_21] 1.9701947170278125e+00
pressure[sink_22] 4.2333695857147681e+01
pressure[sink_23] 8.0203093203083952e+01
pressure[sink_24] 2.1810816925643830e+00
pressure[sink_25] 7.4180026406586776e+01
pressure[sink_26] 5.7865230596356177e+01
pressure[sink_27] 7.6552768387139878e+01
pressure[sink_28] 7.6276032555739334e+01
pressure[sink_29] 7.6571314829356524e+01
interdiction[source_1,sink_3] 0
interdiction[innode_1,sink_16] 0
interdiction[innode_6,sink_13] 0
interdiction[sink_13,sink_14] 0
interdiction[sink_14,sink_10] 0
interdiction[sink_25,sink_26] 0
interdiction[sink_26,sink_9] 0
interdiction[sink_9,sink_18] 0
interdiction[sink_26,sink_4] 0
interdiction[sink_4,sink_20] 0
interdiction[sink_18,sink_6] 0
interdiction[sink_25,innode_8] 0
interdiction[sink_6,sink_7] 0
interdiction[sink_6,sink_22] 0
interdiction[sink_7,sink_24] 0
interdiction[sink_22,sink_1] 0
interdiction[sink_24,sink_21] 0
interdiction[sink_21,sink_12] 0
interdiction[sink_7,sink_5] 0
interdiction[sink_5,sink_17] 0
interdiction[sink_17,sink_4] 0
interdiction[sink_17,sink_8] 1
interdiction[sink_3,sink_23] 0
interdiction[sink_8,sink_20] 0
interdiction[sink_25,sink_20] 1
interdiction[sink_25,sink_15] 0
interdiction[sink_15,sink_29] 0
interdiction[sink_29,sink_28] 0
interdiction[sink_29,sink_2] 0
interdiction[sink_2,sink_15] 0
interdiction[sink_29,innode_7] 0
interdiction[innode_4,sink_19] 0
interdiction[sink_19,innode_3] 0
interdiction[innode_4,innode_5] 1
interdiction[sink_27,innode_5] 0
interdiction[sink_27,sink_19] 0
interdiction[sink_10,sink_11] 0
interdiction[sink_10,innode_2] 0
interdiction[sink_10,innode_3] 0
interdiction[innode_6,sink_25] 0
interdiction[sink_11,innode_1] 0
interdiction[sink_19,innode_2] 0
interdiction[source_3,innode_4] 0
interdiction[source_2,innode_7] 0
interdiction[sink_3,innode_8] 0
WCcheckFlow[source_1,sink_3] 39
WCcheckFlow[innode_1,sink_16] 1
WCcheckFlow[innode_6,sink_13] 13
WCcheckFlow[sink_13,sink_14] 12
WCcheckFlow[sink_14,sink_10] 11
WCcheckFlow[sink_25,sink_26] 15
WCcheckFlow[sink_26,sink_9] 11
WCcheckFlow[sink_9,sink_18] 10
WCcheckFlow[sink_26,sink_4] 3
WCcheckFlow[sink_4,sink_20] 2
WCcheckFlow[sink_18,sink_6] 9
WCcheckFlow[sink_25,innode_8] -36
WCcheckFlow[sink_6,sink_7] 6
WCcheckFlow[sink_6,sink_22] 2
WCcheckFlow[sink_7,sink_24] 3
WCcheckFlow[sink_22,sink_1] 1
WCcheckFlow[sink_24,sink_21] 2
WCcheckFlow[sink_21,sink_12] 1
WCcheckFlow[sink_7,sink_5] 2
WCcheckFlow[sink_5,sink_17] 1
WCcheckFlow[sink_17,sink_4] 0
WCcheckFlow[sink_17,sink_8] 0
WCcheckFlow[sink_3,sink_23] 1
WCcheckFlow[sink_8,sink_20] -1
WCcheckFlow[sink_25,sink_20] 0
WCcheckFlow[sink_25,sink_15] 6
WCcheckFlow[sink_15,sink_29] 5
WCcheckFlow[sink_29,sink_28] 1
WCcheckFlow[sink_29,sink_2] 1
WCcheckFlow[sink_2,sink_15] 0
WCcheckFlow[sink_29,innode_7] 2
WCcheckFlow[innode_4,sink_19] -2
WCcheckFlow[sink_19,innode_3] -5
WCcheckFlow[innode_4,innode_5] 0
WCcheckFlow[sink_27,innode_5] 1
WCcheckFlow[sink_27,sink_19] -2
WCcheckFlow[sink_10,sink_11] 3
WCcheckFlow[sink_10,innode_2] 1
WCcheckFlow[sink_10,innode_3] 6
WCcheckFlow[innode_6,sink_25] -14
WCcheckFlow[sink_11,innode_1] 2
WCcheckFlow[sink_19,innode_2] 0
WCcheckFlow[source_3,innode_4] -1
WCcheckFlow[source_2,innode_7] -1
WCcheckFlow[sink_3,innode_8] 37
